c "122409.clq"
p edge 141 548
e 1 5
e 1 7
e 1 9
e 1 10
e 1 12
e 1 21
e 1 26
e 1 32
e 1 49
e 1 77
e 1 83
e 1 91
e 1 102
e 1 104
e 2 5
e 2 6
e 2 7
e 2 8
e 2 11
e 2 13
e 2 20
e 2 21
e 2 26
e 2 28
e 2 31
e 2 37
e 2 45
e 2 48
e 2 57
e 2 102
e 2 123
e 2 135
e 3 5
e 3 6
e 3 7
e 3 8
e 3 12
e 3 13
e 3 14
e 3 16
e 3 18
e 3 22
e 3 25
e 3 27
e 3 36
e 3 48
e 3 49
e 3 57
e 3 64
e 3 65
e 3 67
e 3 70
e 3 80
e 3 90
e 3 96
e 3 106
e 3 116
e 3 118
e 4 5
e 4 6
e 4 9
e 4 15
e 4 17
e 4 24
e 4 29
e 4 32
e 4 36
e 4 42
e 4 51
e 4 52
e 4 56
e 4 73
e 4 74
e 4 76
e 4 106
e 4 109
e 4 138
e 5 6
e 5 7
e 5 8
e 5 10
e 5 11
e 5 15
e 5 17
e 5 18
e 5 19
e 5 29
e 5 30
e 5 47
e 5 56
e 5 60
e 5 63
e 5 72
e 5 76
e 5 85
e 5 86
e 5 87
e 5 113
e 5 120
e 5 128
e 5 132
e 5 135
e 5 139
e 6 9
e 6 10
e 6 15
e 6 16
e 6 17
e 6 20
e 6 23
e 6 24
e 6 28
e 6 31
e 6 33
e 6 38
e 6 51
e 6 53
e 6 56
e 6 58
e 6 60
e 6 62
e 6 77
e 6 84
e 6 88
e 6 92
e 6 95
e 6 110
e 6 116
e 6 121
e 6 123
e 6 130
e 6 133
e 7 8
e 7 11
e 7 19
e 7 20
e 7 21
e 7 29
e 7 32
e 7 35
e 7 37
e 7 38
e 7 46
e 7 48
e 7 51
e 7 57
e 7 59
e 7 71
e 7 82
e 7 91
e 7 95
e 7 97
e 7 104
e 7 111
e 7 117
e 7 123
e 8 9
e 8 10
e 8 11
e 8 12
e 8 13
e 8 14
e 8 15
e 8 18
e 8 22
e 8 23
e 8 24
e 8 25
e 8 26
e 8 27
e 8 28
e 8 30
e 8 33
e 8 34
e 8 36
e 8 40
e 8 41
e 8 43
e 8 46
e 8 48
e 8 52
e 8 59
e 8 61
e 8 62
e 8 67
e 8 76
e 8 82
e 8 86
e 8 90
e 8 98
e 8 99
e 8 105
e 8 108
e 8 121
e 8 122
e 8 125
e 8 132
e 8 134
e 9 23
e 9 42
e 9 49
e 9 59
e 9 89
e 9 101
e 9 113
e 9 117
e 9 132
e 10 13
e 10 23
e 10 35
e 10 45
e 10 85
e 10 130
e 10 133
e 11 12
e 11 14
e 11 33
e 11 50
e 11 53
e 11 77
e 12 17
e 12 22
e 12 24
e 12 41
e 12 50
e 12 54
e 12 61
e 12 79
e 13 14
e 13 16
e 13 22
e 13 35
e 13 39
e 13 40
e 13 47
e 13 54
e 13 58
e 13 64
e 13 68
e 13 75
e 13 92
e 13 96
e 13 103
e 13 108
e 13 124
e 13 134
e 13 139
e 14 16
e 14 19
e 14 20
e 14 34
e 14 40
e 14 55
e 14 135
e 15 25
e 15 30
e 15 36
e 15 39
e 15 66
e 15 68
e 15 69
e 15 80
e 15 93
e 15 98
e 15 129
e 15 135
e 15 137
e 15 138
e 15 139
e 16 26
e 16 35
e 16 73
e 17 18
e 17 64
e 17 111
e 18 19
e 18 25
e 18 29
e 18 30
e 18 39
e 18 42
e 18 53
e 18 61
e 18 73
e 18 100
e 18 101
e 18 110
e 18 118
e 18 124
e 18 125
e 18 126
e 18 137
e 18 138
e 19 21
e 19 32
e 19 41
e 19 67
e 19 79
e 19 81
e 19 106
e 19 112
e 20 56
e 20 71
e 21 28
e 21 34
e 21 41
e 21 43
e 21 62
e 21 84
e 21 127
e 22 64
e 22 97
e 23 27
e 23 31
e 23 37
e 23 42
e 23 54
e 23 55
e 23 65
e 23 67
e 23 74
e 23 78
e 23 97
e 23 110
e 23 122
e 23 125
e 23 133
e 23 141
e 24 55
e 24 117
e 25 49
e 25 61
e 26 27
e 26 68
e 26 118
e 27 34
e 27 44
e 27 99
e 27 118
e 28 31
e 28 40
e 28 52
e 28 60
e 28 87
e 28 115
e 28 123
e 29 43
e 29 45
e 29 46
e 29 54
e 29 62
e 29 69
e 29 102
e 29 107
e 29 113
e 29 114
e 30 95
e 31 33
e 31 63
e 31 71
e 31 78
e 31 128
e 31 134
e 31 140
e 31 141
e 32 43
e 32 66
e 32 93
e 32 94
e 32 101
e 32 137
e 33 38
e 33 44
e 33 59
e 33 97
e 33 122
e 34 83
e 34 131
e 35 37
e 35 38
e 35 46
e 35 47
e 35 65
e 35 68
e 35 70
e 35 75
e 35 79
e 35 85
e 35 87
e 35 96
e 35 102
e 35 109
e 35 139
e 36 50
e 36 58
e 36 74
e 36 81
e 36 87
e 36 93
e 36 99
e 36 100
e 36 119
e 36 121
e 36 127
e 38 39
e 38 44
e 39 45
e 39 89
e 39 104
e 39 114
e 40 44
e 40 50
e 40 51
e 40 65
e 40 89
e 40 91
e 40 100
e 41 91
e 42 47
e 42 52
e 42 75
e 42 78
e 42 92
e 42 122
e 42 130
e 42 141
e 44 95
e 44 127
e 44 128
e 45 63
e 45 66
e 45 70
e 45 112
e 45 117
e 45 124
e 45 140
e 46 72
e 46 80
e 46 88
e 46 107
e 46 126
e 47 90
e 47 100
e 47 101
e 47 112
e 48 55
e 48 66
e 48 84
e 48 88
e 48 120
e 48 121
e 49 58
e 49 80
e 49 99
e 50 84
e 50 133
e 51 69
e 51 77
e 51 88
e 51 93
e 51 94
e 51 105
e 51 109
e 51 129
e 52 53
e 52 60
e 52 81
e 52 86
e 52 140
e 53 72
e 53 76
e 53 114
e 54 57
e 54 81
e 54 106
e 54 107
e 54 111
e 54 115
e 54 124
e 54 127
e 54 129
e 55 79
e 55 105
e 55 108
e 55 116
e 56 71
e 56 83
e 57 120
e 59 63
e 60 72
e 60 119
e 62 69
e 63 94
e 64 73
e 64 86
e 64 92
e 65 70
e 66 83
e 66 96
e 66 98
e 66 131
e 67 82
e 67 104
e 67 137
e 69 126
e 70 78
e 70 129
e 71 74
e 72 75
e 72 125
e 73 115
e 76 98
e 77 82
e 77 89
e 81 90
e 81 103
e 81 140
e 82 85
e 82 94
e 82 120
e 82 128
e 84 114
e 84 136
e 86 109
e 87 107
e 91 126
e 92 105
e 92 119
e 92 136
e 93 132
e 96 108
e 100 103
e 100 130
e 101 103
e 102 131
e 105 110
e 106 111
e 106 115
e 106 131
e 107 113
e 107 119
e 107 136
e 107 138
e 110 112
e 111 116
e 115 136
e 128 134
e 129 141
